JulietBench/Juliet_Based_Patch_Bench/linux/CWE-189-Numeric-Errors/CVE_2011_1593_d8bdc59f215e62098bc5b4256fd9928bf27053a1/solverproc_pid_readdir_Snippet.smt2
; benchmark generated from python API
(set-info :status unknown)
(declare-fun rdi () (_ BitVec 64))
(declare-fun R () (_ BitVec 32))
(assert
 (let ((?x6 ((_ extract 31 0) rdi)))
 (let ((?x16 (bvadd (_ bv4294967040 32) ?x6)))
 (let (($x49 (= R ?x16)))
 (let (($x17 (bvsge (_ bv4194587 64) rdi)))
 (let (($x56 (and $x17 $x49)))
 (let (($x54 (= (_ bv0 32) R)))
 (let (($x44 (bvslt (_ bv4194587 64) rdi)))
 (let (($x55 (and $x44 $x54)))
 (let (($x57 (or $x55 $x56)))
 (let (($x60 (not $x57)))
 (let (($x59 (and (distinct R ?x16) true)))
 (let (($x61 (and $x59 $x60)))
 (let (($x58 (and $x49 $x57)))
 (let (($x62 (or $x58 $x61)))
 (not $x62))))))))))))))))
(check-sat)
